NAME : P-n50-k7.397375.tour
COMMENT : Length = 397375
COMMENT : Found by LKH [Keld Helsgaun] Sun Dec 17 22:33:49 2017
TYPE : TOUR
DIMENSION : 56
TOUR_SECTION
1
8
36
12
39
11
32
53
27
13
40
10
26
19
25
50
24
56
5
46
28
14
16
21
38
37
52
7
34
2
44
42
43
23
29
55
18
41
33
45
4
17
51
3
31
49
30
6
48
22
54
35
47
9
20
15
-1
EOF
